c clasp version 2.1.4
c Reading from ...chMarks/24_Nodes/PBencd_RandomCost.opb
c Solving...
o 975
o 968
o 966
o 959
o 949
o 937
o 924
o 916
o 892
o 877
o 875
o 861
o 860
o 845
o 824
o 819
o 817
o 814
o 799
o 756
o 751
o 744
o 734
o 712
o 705
o 702
o 692
o 677
o 669
o 666
o 660
o 655
o 642
o 631
o 630
o 620
o 613
o 605
o 603
o 598
o 593
o 586
o 582
o 578
o 577
o 576
o 575
o 562
o 550
o 532
o 528
o 525
o 524
o 514
o 487
o 480
o 468
o 459
o 458
o 455
o 448
o 432
o 421
o 420
o 413
o 410
o 408
o 401
o 390
o 385
o 380
o 362
o 355
o 345
o 337
o 336
o 334
o 307
o 295
o 285
o 276
o 272
o 267
o 261
o 257
o 243
o 240
